output ([(((("\n"++problem_name)++"\n")++"L:")++show(L))++"\n"]++[if problem[i,j]==0 then "*" else show(letters[fix(L[problem[i,j]])]) endif++if j==cols then "\n" else "" endif | i in 1..rows, j in 1..cols, ])++["\n"];
int: rows = 11;
int: cols = 11;
array [1..rows,1..cols] of int: problem = [|1,2,3,4,0,0,0,5,6,7,8|9,10,11,12,13,0,14,15,16,17,18|19,20,21,22,23,0,24,25,26,27,28|29,30,31,0,32,33,34,0,35,36,37|0,38,39,40,41,42,0,43,44,45,0|0,0,0,46,47,48,49,50,0,0,0|0,51,52,53,0,54,55,56,57,58,0|59,60,61,0,62,63,64,0,65,66,67|68,69,70,71,72,0,73,74,75,76,77|78,79,80,81,82,0,83,84,85,86,87|88,89,90,91,0,0,0,92,93,94,95|];
int: num_letters = 26;
array [1..num_letters] of string: letters = ["a","b","c","d","e","f","g","h","i","j","k","l","m","n","o","p","q","r","s","t","u","v","w","x","y","z"];
int: N = 95;
array [0..N] of int: L;
string: problem_name = "puzzle15, 11 x 11";
